(set-logic QF_FPABV)
(declare-fun b1506 () (_ FP 11 53))
(declare-fun b1525 () (_ FP 11 53))
(declare-fun b1509 () (_ FP 8 24))
(declare-fun b1487 () (_ FP 11 53))
(declare-fun b1620 () (_ FP 11 53))
(declare-fun b1623 () (_ FP 8 24))
(declare-fun b2069 () (_ FP 8 24))
(declare-fun b2172 () (_ FP 8 24))
(declare-fun b1775 () (_ FP 8 24))
(declare-fun b1880 () (_ FP 8 24))
(declare-fun b1482 () (_ FP 11 53))
(declare-fun b1816 () (_ FP 8 24))
(declare-fun b1639 () (_ FP 11 53))
(declare-fun b1859 () (_ FP 8 24))
(declare-fun b1582 () (_ FP 11 53))
(declare-fun b818 () (_ FP 11 53))
(declare-fun b1838 () (_ FP 8 24))
(declare-fun b1661 () (_ FP 8 24))
(declare-fun b1715 () (_ FP 11 53))
(declare-fun b1718 () (_ FP 8 24))
(declare-fun b205 () (_ FP 8 24))
(declare-fun b2006 () (_ FP 8 24))
(declare-fun b2090 () (_ FP 8 24))
(declare-fun b1563 () (_ FP 11 53))
(declare-fun b1585 () (_ FP 8 24))
(declare-fun b221 () (_ FP 11 53))
(declare-fun b1477 () (_ FP 8 24))
(declare-fun b1734 () (_ FP 11 53))
(declare-fun b1791 () (_ FP 11 53))
(declare-fun b212 () (_ FP 8 24))
(declare-fun b1474 () (_ FP 11 53))
(declare-fun b1490 () (_ FP 8 24))
(declare-fun b1943 () (_ FP 8 24))
(declare-fun b1985 () (_ FP 8 24))
(declare-fun b1566 () (_ FP 8 24))
(declare-fun b210 () (_ FP 11 53))
(declare-fun b1604 () (_ FP 8 24))
(declare-fun b1772 () (_ FP 11 53))
(declare-fun b1547 () (_ FP 8 24))
(declare-fun b1677 () (_ FP 11 53))
(declare-fun b1922 () (_ FP 8 24))
(declare-fun b1901 () (_ FP 8 24))
(declare-fun b1658 () (_ FP 11 53))
(declare-fun b2153 () (_ FP 8 24))
(declare-fun b1699 () (_ FP 8 24))
(declare-fun b207 () (_ FP 8 24))
(declare-fun b2132 () (_ FP 8 24))
(declare-fun b2048 () (_ FP 8 24))
(declare-fun b1642 () (_ FP 8 24))
(declare-fun b1544 () (_ FP 11 53))
(declare-fun b1964 () (_ FP 8 24))
(declare-fun b2181 () (_ FP 8 24))
(declare-fun b1528 () (_ FP 8 24))
(declare-fun b1680 () (_ FP 8 24))
(declare-fun b2027 () (_ FP 8 24))
(declare-fun b1696 () (_ FP 11 53))
(declare-fun b1794 () (_ FP 8 24))
(declare-fun b832 () (_ FP 8 24))
(declare-fun b1601 () (_ FP 11 53))
(declare-fun b1753 () (_ FP 11 53))
(declare-fun b1756 () (_ FP 8 24))
(declare-fun b2111 () (_ FP 8 24))
(declare-fun b1737 () (_ FP 8 24))
(define-fun .3 () RoundingMode roundNearestTiesToEven)
(define-fun .9 () (_ FP 8 24) b205)
(define-fun .10 () (_ FP 8 24) b207)
(define-fun .11 () (_ FP 8 24) (/ .3 .9 .10))
(define-fun .12 () (_ FP 11 53) ((_ asFloat 11 53) .3 .11))
(define-fun .13 () (_ FP 11 53) b221)
(define-fun .14 () (_ FP 11 53) (* .3 .12 .13))
(define-fun .15 () (_ FP 8 24) (* .3 .11 .11))
(define-fun .16 () (_ FP 8 24) (- .15))
(define-fun .17 () (_ FP 8 24) (+ .3 .9 .16))
(define-fun .18 () (_ FP 11 53) ((_ asFloat 11 53) .3 .17))
(define-fun .19 () (_ FP 11 53) (/ .3 .18 .14))
(define-fun .20 () (_ FP 8 24) ((_ asFloat 8 24) .3 .19))
(define-fun .21 () (_ FP 8 24) (+ .3 .11 .20))
(define-fun .22 () (_ FP 8 24) (* .3 .21 .21))
(define-fun .23 () (_ FP 8 24) (- .22))
(define-fun .24 () (_ FP 8 24) (+ .3 .9 .23))
(define-fun .25 () (_ FP 11 53) ((_ asFloat 11 53) .3 .24))
(define-fun .26 () (_ FP 8 24) ((_ asFloat 8 24) .3 .25))
(define-fun .27 () (_ FP 8 24) b2181)
(define-fun .28 () Bool (= .26 .27))
(define-fun .29 () Bool (not .28))
(define-fun .30 () (_ FP 11 53) ((_ asFloat 11 53) .3 .21))
(define-fun .31 () (_ FP 11 53) (* .3 .13 .30))
(define-fun .32 () (_ FP 11 53) (/ .3 .25 .31))
(define-fun .33 () (_ FP 8 24) ((_ asFloat 8 24) .3 .32))
(define-fun .34 () (_ FP 8 24) (+ .3 .21 .33))
(define-fun .35 () (_ FP 8 24) (* .3 .34 .34))
(define-fun .36 () (_ FP 8 24) (- .35))
(define-fun .37 () (_ FP 8 24) (+ .3 .9 .36))
(define-fun .38 () (_ FP 11 53) ((_ asFloat 11 53) .3 .37))
(define-fun .39 () (_ FP 8 24) ((_ asFloat 8 24) .3 .38))
(define-fun .40 () (_ FP 8 24) b2172)
(define-fun .41 () Bool (= .39 .40))
(define-fun .42 () Bool (not .41))
(define-fun .43 () (_ FP 8 24) b1490)
(define-fun .44 () (_ FP 11 53) ((_ asFloat 11 53) .3 .43))
(define-fun .45 () (_ FP 11 53) (* .3 .13 .44))
(define-fun .46 () (_ FP 8 24) (* .3 .43 .43))
(define-fun .47 () (_ FP 8 24) (- .46))
(define-fun .48 () (_ FP 8 24) (+ .3 .9 .47))
(define-fun .49 () (_ FP 11 53) ((_ asFloat 11 53) .3 .48))
(define-fun .50 () (_ FP 11 53) (/ .3 .49 .45))
(define-fun .51 () (_ FP 8 24) ((_ asFloat 8 24) .3 .50))
(define-fun .52 () (_ FP 8 24) (+ .3 .43 .51))
(define-fun .53 () (_ FP 8 24) (* .3 .52 .52))
(define-fun .54 () (_ FP 8 24) (- .53))
(define-fun .55 () (_ FP 8 24) (+ .3 .9 .54))
(define-fun .56 () (_ FP 11 53) ((_ asFloat 11 53) .3 .55))
(define-fun .57 () (_ FP 8 24) ((_ asFloat 8 24) .3 .56))
(define-fun .58 () (_ FP 8 24) b2153)
(define-fun .59 () Bool (= .57 .58))
(define-fun .60 () Bool (not .59))
(define-fun .61 () (_ FP 8 24) b1509)
(define-fun .62 () (_ FP 11 53) ((_ asFloat 11 53) .3 .61))
(define-fun .63 () (_ FP 11 53) (* .3 .13 .62))
(define-fun .64 () (_ FP 8 24) (* .3 .61 .61))
(define-fun .65 () (_ FP 8 24) (- .64))
(define-fun .66 () (_ FP 8 24) (+ .3 .9 .65))
(define-fun .67 () (_ FP 11 53) ((_ asFloat 11 53) .3 .66))
(define-fun .68 () (_ FP 11 53) (/ .3 .67 .63))
(define-fun .69 () (_ FP 8 24) ((_ asFloat 8 24) .3 .68))
(define-fun .70 () (_ FP 8 24) (+ .3 .61 .69))
(define-fun .71 () (_ FP 8 24) (* .3 .70 .70))
(define-fun .72 () (_ FP 8 24) (- .71))
(define-fun .73 () (_ FP 8 24) (+ .3 .9 .72))
(define-fun .74 () (_ FP 11 53) ((_ asFloat 11 53) .3 .73))
(define-fun .75 () (_ FP 8 24) ((_ asFloat 8 24) .3 .74))
(define-fun .76 () (_ FP 8 24) b2132)
(define-fun .77 () Bool (= .75 .76))
(define-fun .78 () Bool (not .77))
(define-fun .79 () (_ FP 8 24) b1528)
(define-fun .80 () (_ FP 11 53) ((_ asFloat 11 53) .3 .79))
(define-fun .81 () (_ FP 11 53) (* .3 .13 .80))
(define-fun .82 () (_ FP 8 24) (* .3 .79 .79))
(define-fun .83 () (_ FP 8 24) (- .82))
(define-fun .84 () (_ FP 8 24) (+ .3 .9 .83))
(define-fun .85 () (_ FP 11 53) ((_ asFloat 11 53) .3 .84))
(define-fun .86 () (_ FP 11 53) (/ .3 .85 .81))
(define-fun .87 () (_ FP 8 24) ((_ asFloat 8 24) .3 .86))
(define-fun .88 () (_ FP 8 24) (+ .3 .79 .87))
(define-fun .89 () (_ FP 8 24) (* .3 .88 .88))
(define-fun .90 () (_ FP 8 24) (- .89))
(define-fun .91 () (_ FP 8 24) (+ .3 .9 .90))
(define-fun .92 () (_ FP 11 53) ((_ asFloat 11 53) .3 .91))
(define-fun .93 () (_ FP 8 24) ((_ asFloat 8 24) .3 .92))
(define-fun .94 () (_ FP 8 24) b2111)
(define-fun .95 () Bool (= .93 .94))
(define-fun .96 () Bool (not .95))
(define-fun .97 () (_ FP 8 24) b1547)
(define-fun .98 () (_ FP 11 53) ((_ asFloat 11 53) .3 .97))
(define-fun .99 () (_ FP 11 53) (* .3 .13 .98))
(define-fun .100 () (_ FP 8 24) (* .3 .97 .97))
(define-fun .101 () (_ FP 8 24) (- .100))
(define-fun .102 () (_ FP 8 24) (+ .3 .9 .101))
(define-fun .103 () (_ FP 11 53) ((_ asFloat 11 53) .3 .102))
(define-fun .104 () (_ FP 11 53) (/ .3 .103 .99))
(define-fun .105 () (_ FP 8 24) ((_ asFloat 8 24) .3 .104))
(define-fun .106 () (_ FP 8 24) (+ .3 .97 .105))
(define-fun .107 () (_ FP 8 24) (* .3 .106 .106))
(define-fun .108 () (_ FP 8 24) (- .107))
(define-fun .109 () (_ FP 8 24) (+ .3 .9 .108))
(define-fun .110 () (_ FP 11 53) ((_ asFloat 11 53) .3 .109))
(define-fun .111 () (_ FP 8 24) ((_ asFloat 8 24) .3 .110))
(define-fun .112 () (_ FP 8 24) b2090)
(define-fun .113 () Bool (= .111 .112))
(define-fun .114 () Bool (not .113))
(define-fun .115 () (_ FP 8 24) b1566)
(define-fun .116 () (_ FP 11 53) ((_ asFloat 11 53) .3 .115))
(define-fun .117 () (_ FP 11 53) (* .3 .13 .116))
(define-fun .118 () (_ FP 8 24) (* .3 .115 .115))
(define-fun .119 () (_ FP 8 24) (- .118))
(define-fun .120 () (_ FP 8 24) (+ .3 .9 .119))
(define-fun .121 () (_ FP 11 53) ((_ asFloat 11 53) .3 .120))
(define-fun .122 () (_ FP 11 53) (/ .3 .121 .117))
(define-fun .123 () (_ FP 8 24) ((_ asFloat 8 24) .3 .122))
(define-fun .124 () (_ FP 8 24) (+ .3 .115 .123))
(define-fun .125 () (_ FP 8 24) (* .3 .124 .124))
(define-fun .126 () (_ FP 8 24) (- .125))
(define-fun .127 () (_ FP 8 24) (+ .3 .9 .126))
(define-fun .128 () (_ FP 11 53) ((_ asFloat 11 53) .3 .127))
(define-fun .129 () (_ FP 8 24) ((_ asFloat 8 24) .3 .128))
(define-fun .130 () (_ FP 8 24) b2069)
(define-fun .131 () Bool (= .129 .130))
(define-fun .132 () Bool (not .131))
(define-fun .133 () (_ FP 8 24) b1585)
(define-fun .134 () (_ FP 11 53) ((_ asFloat 11 53) .3 .133))
(define-fun .135 () (_ FP 11 53) (* .3 .13 .134))
(define-fun .136 () (_ FP 8 24) (* .3 .133 .133))
(define-fun .137 () (_ FP 8 24) (- .136))
(define-fun .138 () (_ FP 8 24) (+ .3 .9 .137))
(define-fun .139 () (_ FP 11 53) ((_ asFloat 11 53) .3 .138))
(define-fun .140 () (_ FP 11 53) (/ .3 .139 .135))
(define-fun .141 () (_ FP 8 24) ((_ asFloat 8 24) .3 .140))
(define-fun .142 () (_ FP 8 24) (+ .3 .133 .141))
(define-fun .143 () (_ FP 8 24) (* .3 .142 .142))
(define-fun .144 () (_ FP 8 24) (- .143))
(define-fun .145 () (_ FP 8 24) (+ .3 .9 .144))
(define-fun .146 () (_ FP 11 53) ((_ asFloat 11 53) .3 .145))
(define-fun .147 () (_ FP 8 24) ((_ asFloat 8 24) .3 .146))
(define-fun .148 () (_ FP 8 24) b2048)
(define-fun .149 () Bool (= .147 .148))
(define-fun .150 () Bool (not .149))
(define-fun .151 () (_ FP 8 24) b1604)
(define-fun .152 () (_ FP 11 53) ((_ asFloat 11 53) .3 .151))
(define-fun .153 () (_ FP 11 53) (* .3 .13 .152))
(define-fun .154 () (_ FP 8 24) (* .3 .151 .151))
(define-fun .155 () (_ FP 8 24) (- .154))
(define-fun .156 () (_ FP 8 24) (+ .3 .9 .155))
(define-fun .157 () (_ FP 11 53) ((_ asFloat 11 53) .3 .156))
(define-fun .158 () (_ FP 11 53) (/ .3 .157 .153))
(define-fun .159 () (_ FP 8 24) ((_ asFloat 8 24) .3 .158))
(define-fun .160 () (_ FP 8 24) (+ .3 .151 .159))
(define-fun .161 () (_ FP 8 24) (* .3 .160 .160))
(define-fun .162 () (_ FP 8 24) (- .161))
(define-fun .163 () (_ FP 8 24) (+ .3 .9 .162))
(define-fun .164 () (_ FP 11 53) ((_ asFloat 11 53) .3 .163))
(define-fun .165 () (_ FP 8 24) ((_ asFloat 8 24) .3 .164))
(define-fun .166 () (_ FP 8 24) b2027)
(define-fun .167 () Bool (= .165 .166))
(define-fun .168 () Bool (not .167))
(define-fun .169 () (_ FP 8 24) b1623)
(define-fun .170 () (_ FP 11 53) ((_ asFloat 11 53) .3 .169))
(define-fun .171 () (_ FP 11 53) (* .3 .13 .170))
(define-fun .172 () (_ FP 8 24) (* .3 .169 .169))
(define-fun .173 () (_ FP 8 24) (- .172))
(define-fun .174 () (_ FP 8 24) (+ .3 .9 .173))
(define-fun .175 () (_ FP 11 53) ((_ asFloat 11 53) .3 .174))
(define-fun .176 () (_ FP 11 53) (/ .3 .175 .171))
(define-fun .177 () (_ FP 8 24) ((_ asFloat 8 24) .3 .176))
(define-fun .178 () (_ FP 8 24) (+ .3 .169 .177))
(define-fun .179 () (_ FP 8 24) (* .3 .178 .178))
(define-fun .180 () (_ FP 8 24) (- .179))
(define-fun .181 () (_ FP 8 24) (+ .3 .9 .180))
(define-fun .182 () (_ FP 11 53) ((_ asFloat 11 53) .3 .181))
(define-fun .183 () (_ FP 8 24) ((_ asFloat 8 24) .3 .182))
(define-fun .184 () (_ FP 8 24) b2006)
(define-fun .185 () Bool (= .183 .184))
(define-fun .186 () Bool (not .185))
(define-fun .187 () (_ FP 8 24) b1642)
(define-fun .188 () (_ FP 11 53) ((_ asFloat 11 53) .3 .187))
(define-fun .189 () (_ FP 11 53) (* .3 .13 .188))
(define-fun .190 () (_ FP 8 24) (* .3 .187 .187))
(define-fun .191 () (_ FP 8 24) (- .190))
(define-fun .192 () (_ FP 8 24) (+ .3 .9 .191))
(define-fun .193 () (_ FP 11 53) ((_ asFloat 11 53) .3 .192))
(define-fun .194 () (_ FP 11 53) (/ .3 .193 .189))
(define-fun .195 () (_ FP 8 24) ((_ asFloat 8 24) .3 .194))
(define-fun .196 () (_ FP 8 24) (+ .3 .187 .195))
(define-fun .197 () (_ FP 8 24) (* .3 .196 .196))
(define-fun .198 () (_ FP 8 24) (- .197))
(define-fun .199 () (_ FP 8 24) (+ .3 .9 .198))
(define-fun .200 () (_ FP 11 53) ((_ asFloat 11 53) .3 .199))
(define-fun .201 () (_ FP 8 24) ((_ asFloat 8 24) .3 .200))
(define-fun .202 () (_ FP 8 24) b1985)
(define-fun .203 () Bool (= .201 .202))
(define-fun .204 () Bool (not .203))
(define-fun .205 () (_ FP 8 24) b1661)
(define-fun .206 () (_ FP 11 53) ((_ asFloat 11 53) .3 .205))
(define-fun .207 () (_ FP 11 53) (* .3 .13 .206))
(define-fun .208 () (_ FP 8 24) (* .3 .205 .205))
(define-fun .209 () (_ FP 8 24) (- .208))
(define-fun .210 () (_ FP 8 24) (+ .3 .9 .209))
(define-fun .211 () (_ FP 11 53) ((_ asFloat 11 53) .3 .210))
(define-fun .212 () (_ FP 11 53) (/ .3 .211 .207))
(define-fun .213 () (_ FP 8 24) ((_ asFloat 8 24) .3 .212))
(define-fun .214 () (_ FP 8 24) (+ .3 .205 .213))
(define-fun .215 () (_ FP 8 24) (* .3 .214 .214))
(define-fun .216 () (_ FP 8 24) (- .215))
(define-fun .217 () (_ FP 8 24) (+ .3 .9 .216))
(define-fun .218 () (_ FP 11 53) ((_ asFloat 11 53) .3 .217))
(define-fun .219 () (_ FP 8 24) ((_ asFloat 8 24) .3 .218))
(define-fun .220 () (_ FP 8 24) b1964)
(define-fun .221 () Bool (= .219 .220))
(define-fun .222 () Bool (not .221))
(define-fun .223 () (_ FP 8 24) b1680)
(define-fun .224 () (_ FP 11 53) ((_ asFloat 11 53) .3 .223))
(define-fun .225 () (_ FP 11 53) (* .3 .13 .224))
(define-fun .226 () (_ FP 8 24) (* .3 .223 .223))
(define-fun .227 () (_ FP 8 24) (- .226))
(define-fun .228 () (_ FP 8 24) (+ .3 .9 .227))
(define-fun .229 () (_ FP 11 53) ((_ asFloat 11 53) .3 .228))
(define-fun .230 () (_ FP 11 53) (/ .3 .229 .225))
(define-fun .231 () (_ FP 8 24) ((_ asFloat 8 24) .3 .230))
(define-fun .232 () (_ FP 8 24) (+ .3 .223 .231))
(define-fun .233 () (_ FP 8 24) (* .3 .232 .232))
(define-fun .234 () (_ FP 8 24) (- .233))
(define-fun .235 () (_ FP 8 24) (+ .3 .9 .234))
(define-fun .236 () (_ FP 11 53) ((_ asFloat 11 53) .3 .235))
(define-fun .237 () (_ FP 8 24) ((_ asFloat 8 24) .3 .236))
(define-fun .238 () (_ FP 8 24) b1943)
(define-fun .239 () Bool (= .237 .238))
(define-fun .240 () Bool (not .239))
(define-fun .241 () (_ FP 8 24) b1699)
(define-fun .242 () (_ FP 11 53) ((_ asFloat 11 53) .3 .241))
(define-fun .243 () (_ FP 11 53) (* .3 .13 .242))
(define-fun .244 () (_ FP 8 24) (* .3 .241 .241))
(define-fun .245 () (_ FP 8 24) (- .244))
(define-fun .246 () (_ FP 8 24) (+ .3 .9 .245))
(define-fun .247 () (_ FP 11 53) ((_ asFloat 11 53) .3 .246))
(define-fun .248 () (_ FP 11 53) (/ .3 .247 .243))
(define-fun .249 () (_ FP 8 24) ((_ asFloat 8 24) .3 .248))
(define-fun .250 () (_ FP 8 24) (+ .3 .241 .249))
(define-fun .251 () (_ FP 8 24) (* .3 .250 .250))
(define-fun .252 () (_ FP 8 24) (- .251))
(define-fun .253 () (_ FP 8 24) (+ .3 .9 .252))
(define-fun .254 () (_ FP 11 53) ((_ asFloat 11 53) .3 .253))
(define-fun .255 () (_ FP 8 24) ((_ asFloat 8 24) .3 .254))
(define-fun .256 () (_ FP 8 24) b1922)
(define-fun .257 () Bool (= .255 .256))
(define-fun .258 () Bool (not .257))
(define-fun .259 () (_ FP 8 24) b1718)
(define-fun .260 () (_ FP 11 53) ((_ asFloat 11 53) .3 .259))
(define-fun .261 () (_ FP 11 53) (* .3 .13 .260))
(define-fun .262 () (_ FP 8 24) (* .3 .259 .259))
(define-fun .263 () (_ FP 8 24) (- .262))
(define-fun .264 () (_ FP 8 24) (+ .3 .9 .263))
(define-fun .265 () (_ FP 11 53) ((_ asFloat 11 53) .3 .264))
(define-fun .266 () (_ FP 11 53) (/ .3 .265 .261))
(define-fun .267 () (_ FP 8 24) ((_ asFloat 8 24) .3 .266))
(define-fun .268 () (_ FP 8 24) (+ .3 .259 .267))
(define-fun .269 () (_ FP 8 24) (* .3 .268 .268))
(define-fun .270 () (_ FP 8 24) (- .269))
(define-fun .271 () (_ FP 8 24) (+ .3 .9 .270))
(define-fun .272 () (_ FP 11 53) ((_ asFloat 11 53) .3 .271))
(define-fun .273 () (_ FP 8 24) ((_ asFloat 8 24) .3 .272))
(define-fun .274 () (_ FP 8 24) b1901)
(define-fun .275 () Bool (= .273 .274))
(define-fun .276 () Bool (not .275))
(define-fun .277 () (_ FP 8 24) b1737)
(define-fun .278 () (_ FP 11 53) ((_ asFloat 11 53) .3 .277))
(define-fun .279 () (_ FP 11 53) (* .3 .13 .278))
(define-fun .280 () (_ FP 8 24) (* .3 .277 .277))
(define-fun .281 () (_ FP 8 24) (- .280))
(define-fun .282 () (_ FP 8 24) (+ .3 .9 .281))
(define-fun .283 () (_ FP 11 53) ((_ asFloat 11 53) .3 .282))
(define-fun .284 () (_ FP 11 53) (/ .3 .283 .279))
(define-fun .285 () (_ FP 8 24) ((_ asFloat 8 24) .3 .284))
(define-fun .286 () (_ FP 8 24) (+ .3 .277 .285))
(define-fun .287 () (_ FP 8 24) (* .3 .286 .286))
(define-fun .288 () (_ FP 8 24) (- .287))
(define-fun .289 () (_ FP 8 24) (+ .3 .9 .288))
(define-fun .290 () (_ FP 11 53) ((_ asFloat 11 53) .3 .289))
(define-fun .291 () (_ FP 8 24) ((_ asFloat 8 24) .3 .290))
(define-fun .292 () (_ FP 8 24) b1880)
(define-fun .293 () Bool (= .291 .292))
(define-fun .294 () Bool (not .293))
(define-fun .295 () (_ FP 8 24) b1756)
(define-fun .296 () (_ FP 11 53) ((_ asFloat 11 53) .3 .295))
(define-fun .297 () (_ FP 11 53) (* .3 .13 .296))
(define-fun .298 () (_ FP 8 24) (* .3 .295 .295))
(define-fun .299 () (_ FP 8 24) (- .298))
(define-fun .300 () (_ FP 8 24) (+ .3 .9 .299))
(define-fun .301 () (_ FP 11 53) ((_ asFloat 11 53) .3 .300))
(define-fun .302 () (_ FP 11 53) (/ .3 .301 .297))
(define-fun .303 () (_ FP 8 24) ((_ asFloat 8 24) .3 .302))
(define-fun .304 () (_ FP 8 24) (+ .3 .295 .303))
(define-fun .305 () (_ FP 8 24) (* .3 .304 .304))
(define-fun .306 () (_ FP 8 24) (- .305))
(define-fun .307 () (_ FP 8 24) (+ .3 .9 .306))
(define-fun .308 () (_ FP 11 53) ((_ asFloat 11 53) .3 .307))
(define-fun .309 () (_ FP 8 24) ((_ asFloat 8 24) .3 .308))
(define-fun .310 () (_ FP 8 24) b1859)
(define-fun .311 () Bool (= .309 .310))
(define-fun .312 () Bool (not .311))
(define-fun .313 () (_ FP 8 24) b1775)
(define-fun .314 () (_ FP 11 53) ((_ asFloat 11 53) .3 .313))
(define-fun .315 () (_ FP 11 53) (* .3 .13 .314))
(define-fun .316 () (_ FP 8 24) (* .3 .313 .313))
(define-fun .317 () (_ FP 8 24) (- .316))
(define-fun .318 () (_ FP 8 24) (+ .3 .9 .317))
(define-fun .319 () (_ FP 11 53) ((_ asFloat 11 53) .3 .318))
(define-fun .320 () (_ FP 11 53) (/ .3 .319 .315))
(define-fun .321 () (_ FP 8 24) ((_ asFloat 8 24) .3 .320))
(define-fun .322 () (_ FP 8 24) (+ .3 .313 .321))
(define-fun .323 () (_ FP 8 24) (* .3 .322 .322))
(define-fun .324 () (_ FP 8 24) (- .323))
(define-fun .325 () (_ FP 8 24) (+ .3 .9 .324))
(define-fun .326 () (_ FP 11 53) ((_ asFloat 11 53) .3 .325))
(define-fun .327 () (_ FP 8 24) ((_ asFloat 8 24) .3 .326))
(define-fun .328 () (_ FP 8 24) b1838)
(define-fun .329 () Bool (= .327 .328))
(define-fun .330 () Bool (not .329))
(define-fun .331 () Bool (= .52 .61))
(define-fun .332 () Bool (not .331))
(define-fun .333 () Bool (= .70 .79))
(define-fun .334 () Bool (not .333))
(define-fun .335 () Bool (= .88 .97))
(define-fun .336 () Bool (not .335))
(define-fun .337 () Bool (= .106 .115))
(define-fun .338 () Bool (not .337))
(define-fun .339 () Bool (= .124 .133))
(define-fun .340 () Bool (not .339))
(define-fun .341 () Bool (= .142 .151))
(define-fun .342 () Bool (not .341))
(define-fun .343 () Bool (= .160 .169))
(define-fun .344 () Bool (not .343))
(define-fun .345 () Bool (= .178 .187))
(define-fun .346 () Bool (not .345))
(define-fun .347 () Bool (= .196 .205))
(define-fun .348 () Bool (not .347))
(define-fun .349 () Bool (= .214 .223))
(define-fun .350 () Bool (not .349))
(define-fun .351 () Bool (= .232 .241))
(define-fun .352 () Bool (not .351))
(define-fun .353 () Bool (= .250 .259))
(define-fun .354 () Bool (not .353))
(define-fun .355 () Bool (= .268 .277))
(define-fun .356 () Bool (not .355))
(define-fun .357 () Bool (= .286 .295))
(define-fun .358 () Bool (not .357))
(define-fun .359 () Bool (= .304 .313))
(define-fun .360 () Bool (not .359))
(define-fun .361 () Bool (= .34 .43))
(define-fun .362 () Bool (not .361))
(define-fun .363 () (_ FP 8 24) b1794)
(define-fun .364 () Bool (= .322 .363))
(define-fun .365 () Bool (not .364))
(define-fun .366 () (_ FP 11 53) ((_ asFloat 11 53) .3 .363))
(define-fun .367 () (_ FP 11 53) (* .3 .13 .366))
(define-fun .368 () (_ FP 8 24) (* .3 .363 .363))
(define-fun .369 () (_ FP 8 24) (- .368))
(define-fun .370 () (_ FP 8 24) (+ .3 .9 .369))
(define-fun .371 () (_ FP 11 53) ((_ asFloat 11 53) .3 .370))
(define-fun .372 () (_ FP 11 53) (/ .3 .371 .367))
(define-fun .373 () (_ FP 8 24) ((_ asFloat 8 24) .3 .372))
(define-fun .374 () (_ FP 8 24) (+ .3 .363 .373))
(define-fun .375 () (_ FP 8 24) (* .3 .374 .374))
(define-fun .376 () (_ FP 8 24) (- .375))
(define-fun .377 () (_ FP 8 24) (+ .3 .9 .376))
(define-fun .378 () (_ FP 11 53) ((_ asFloat 11 53) .3 .377))
(define-fun .379 () (_ FP 8 24) ((_ asFloat 8 24) .3 .378))
(define-fun .380 () (_ FP 8 24) b1816)
(define-fun .381 () Bool (= .379 .380))
(define-fun .382 () Bool (not .381))
(define-fun .383 () (_ FP 11 53) b1474)
(define-fun .384 () (_ FP 11 53) b818)
(define-fun .385 () Bool (= .383 .384))
(define-fun .386 () Bool (not .385))
(define-fun .387 () (_ FP 11 53) b1791)
(define-fun .388 () Bool (= .378 .387))
(define-fun .389 () Bool (not .388))
(define-fun .390 () (_ FP 11 53) b1772)
(define-fun .391 () Bool (= .326 .390))
(define-fun .392 () Bool (not .391))
(define-fun .393 () (_ FP 11 53) b1753)
(define-fun .394 () Bool (= .308 .393))
(define-fun .395 () Bool (not .394))
(define-fun .396 () (_ FP 11 53) b1734)
(define-fun .397 () Bool (= .290 .396))
(define-fun .398 () Bool (not .397))
(define-fun .399 () (_ FP 11 53) b1715)
(define-fun .400 () Bool (= .272 .399))
(define-fun .401 () Bool (not .400))
(define-fun .402 () (_ FP 11 53) b1696)
(define-fun .403 () Bool (= .254 .402))
(define-fun .404 () Bool (not .403))
(define-fun .405 () (_ FP 11 53) b1677)
(define-fun .406 () Bool (= .236 .405))
(define-fun .407 () Bool (not .406))
(define-fun .408 () (_ FP 11 53) b1658)
(define-fun .409 () Bool (= .218 .408))
(define-fun .410 () Bool (not .409))
(define-fun .411 () (_ FP 11 53) b1639)
(define-fun .412 () Bool (= .200 .411))
(define-fun .413 () Bool (not .412))
(define-fun .414 () (_ FP 11 53) b1620)
(define-fun .415 () Bool (= .182 .414))
(define-fun .416 () Bool (not .415))
(define-fun .417 () (_ FP 11 53) b1601)
(define-fun .418 () Bool (= .164 .417))
(define-fun .419 () Bool (not .418))
(define-fun .420 () (_ FP 11 53) b1582)
(define-fun .421 () Bool (= .146 .420))
(define-fun .422 () Bool (not .421))
(define-fun .423 () (_ FP 11 53) b1563)
(define-fun .424 () Bool (= .128 .423))
(define-fun .425 () Bool (not .424))
(define-fun .426 () (_ FP 11 53) b1544)
(define-fun .427 () Bool (= .110 .426))
(define-fun .428 () Bool (not .427))
(define-fun .429 () (_ FP 11 53) b1525)
(define-fun .430 () Bool (= .92 .429))
(define-fun .431 () Bool (not .430))
(define-fun .432 () (_ FP 11 53) b1506)
(define-fun .433 () Bool (= .74 .432))
(define-fun .434 () Bool (not .433))
(define-fun .435 () (_ FP 11 53) b1487)
(define-fun .436 () Bool (= .56 .435))
(define-fun .437 () Bool (not .436))
(define-fun .438 () (_ FP 11 53) b1482)
(define-fun .439 () Bool (= .38 .438))
(define-fun .440 () Bool (not .439))
(define-fun .441 () (_ FP 8 24) ((_ asFloat 8 24) .3 .383))
(define-fun .442 () (_ FP 8 24) b1477)
(define-fun .443 () Bool (= .441 .442))
(define-fun .444 () Bool (not .443))
(define-fun .445 () (_ FP 8 24) b212)
(define-fun .446 () Bool (<= .445 .441))
(define-fun .447 () Bool (not .446))
(define-fun .448 () (_ FP 8 24) b832)
(define-fun .449 () Bool (<= .442 .448))
(define-fun .450 () Bool (not .449))
(define-fun .451 () Bool (<= .445 .9))
(define-fun .452 () Bool (and .450 .451))
(define-fun .453 () Bool (and .447 .452))
(define-fun .454 () (_ FP 8 24) (- .441))
(define-fun .455 () Bool (= .442 .454))
(define-fun .456 () Bool (and .453 .455))
(define-fun .457 () Bool (and .444 .456))
(define-fun .458 () Bool (= .25 .438))
(define-fun .459 () Bool (and .457 .458))
(define-fun .460 () Bool (= .21 .43))
(define-fun .461 () Bool (and .459 .460))
(define-fun .462 () (_ FP 11 53) ((_ asFloat 11 53) .3 .27))
(define-fun .463 () (_ FP 11 53) b210)
(define-fun .464 () Bool (<= .462 .463))
(define-fun .465 () Bool (and .461 .464))
(define-fun .466 () Bool (and .440 .465))
(define-fun .467 () Bool (= .435 .438))
(define-fun .468 () Bool (and .466 .467))
(define-fun .469 () Bool (= .43 .61))
(define-fun .470 () Bool (and .468 .469))
(define-fun .471 () Bool (and .437 .470))
(define-fun .472 () Bool (= .432 .435))
(define-fun .473 () Bool (and .471 .472))
(define-fun .474 () Bool (= .61 .79))
(define-fun .475 () Bool (and .473 .474))
(define-fun .476 () Bool (and .434 .475))
(define-fun .477 () Bool (= .429 .432))
(define-fun .478 () Bool (and .476 .477))
(define-fun .479 () Bool (= .79 .97))
(define-fun .480 () Bool (and .478 .479))
(define-fun .481 () Bool (and .431 .480))
(define-fun .482 () Bool (= .426 .429))
(define-fun .483 () Bool (and .481 .482))
(define-fun .484 () Bool (= .97 .115))
(define-fun .485 () Bool (and .483 .484))
(define-fun .486 () Bool (and .428 .485))
(define-fun .487 () Bool (= .423 .426))
(define-fun .488 () Bool (and .486 .487))
(define-fun .489 () Bool (= .115 .133))
(define-fun .490 () Bool (and .488 .489))
(define-fun .491 () Bool (and .425 .490))
(define-fun .492 () Bool (= .420 .423))
(define-fun .493 () Bool (and .491 .492))
(define-fun .494 () Bool (= .133 .151))
(define-fun .495 () Bool (and .493 .494))
(define-fun .496 () Bool (and .422 .495))
(define-fun .497 () Bool (= .417 .420))
(define-fun .498 () Bool (and .496 .497))
(define-fun .499 () Bool (= .151 .169))
(define-fun .500 () Bool (and .498 .499))
(define-fun .501 () Bool (and .419 .500))
(define-fun .502 () Bool (= .414 .417))
(define-fun .503 () Bool (and .501 .502))
(define-fun .504 () Bool (= .169 .187))
(define-fun .505 () Bool (and .503 .504))
(define-fun .506 () Bool (and .416 .505))
(define-fun .507 () Bool (= .411 .414))
(define-fun .508 () Bool (and .506 .507))
(define-fun .509 () Bool (= .187 .205))
(define-fun .510 () Bool (and .508 .509))
(define-fun .511 () Bool (and .413 .510))
(define-fun .512 () Bool (= .408 .411))
(define-fun .513 () Bool (and .511 .512))
(define-fun .514 () Bool (= .205 .223))
(define-fun .515 () Bool (and .513 .514))
(define-fun .516 () Bool (and .410 .515))
(define-fun .517 () Bool (= .405 .408))
(define-fun .518 () Bool (and .516 .517))
(define-fun .519 () Bool (= .223 .241))
(define-fun .520 () Bool (and .518 .519))
(define-fun .521 () Bool (and .407 .520))
(define-fun .522 () Bool (= .402 .405))
(define-fun .523 () Bool (and .521 .522))
(define-fun .524 () Bool (= .241 .259))
(define-fun .525 () Bool (and .523 .524))
(define-fun .526 () Bool (and .404 .525))
(define-fun .527 () Bool (= .399 .402))
(define-fun .528 () Bool (and .526 .527))
(define-fun .529 () Bool (= .259 .277))
(define-fun .530 () Bool (and .528 .529))
(define-fun .531 () Bool (and .401 .530))
(define-fun .532 () Bool (= .396 .399))
(define-fun .533 () Bool (and .531 .532))
(define-fun .534 () Bool (= .277 .295))
(define-fun .535 () Bool (and .533 .534))
(define-fun .536 () Bool (and .398 .535))
(define-fun .537 () Bool (= .393 .396))
(define-fun .538 () Bool (and .536 .537))
(define-fun .539 () Bool (= .295 .313))
(define-fun .540 () Bool (and .538 .539))
(define-fun .541 () Bool (and .395 .540))
(define-fun .542 () Bool (= .390 .393))
(define-fun .543 () Bool (and .541 .542))
(define-fun .544 () Bool (= .313 .363))
(define-fun .545 () Bool (and .543 .544))
(define-fun .546 () Bool (and .392 .545))
(define-fun .547 () Bool (= .387 .390))
(define-fun .548 () Bool (and .546 .547))
(define-fun .549 () Bool (and .389 .548))
(define-fun .550 () Bool (== .9 .445))
(define-fun .551 () Bool (not .550))
(define-fun .552 () Bool (and .549 .551))
(define-fun .553 () Bool (= .383 .387))
(define-fun .554 () Bool (and .552 .553))
(define-fun .555 () Bool (and .386 .554))
(define-fun .556 () Bool (<= .445 .379))
(define-fun .557 () Bool (not .556))
(define-fun .558 () Bool (and .555 .557))
(define-fun .559 () (_ FP 8 24) (- .379))
(define-fun .560 () Bool (= .380 .559))
(define-fun .561 () Bool (and .558 .560))
(define-fun .562 () Bool (and .382 .561))
(define-fun .563 () Bool (and .365 .562))
(define-fun .564 () Bool (and .362 .563))
(define-fun .565 () Bool (and .360 .564))
(define-fun .566 () Bool (and .358 .565))
(define-fun .567 () Bool (and .356 .566))
(define-fun .568 () Bool (and .354 .567))
(define-fun .569 () Bool (and .352 .568))
(define-fun .570 () Bool (and .350 .569))
(define-fun .571 () Bool (and .348 .570))
(define-fun .572 () Bool (and .346 .571))
(define-fun .573 () Bool (and .344 .572))
(define-fun .574 () Bool (and .342 .573))
(define-fun .575 () Bool (and .340 .574))
(define-fun .576 () Bool (and .338 .575))
(define-fun .577 () Bool (and .336 .576))
(define-fun .578 () Bool (and .334 .577))
(define-fun .579 () Bool (and .332 .578))
(define-fun .580 () (_ FP 11 53) ((_ asFloat 11 53) .3 .328))
(define-fun .581 () Bool (<= .580 .463))
(define-fun .582 () Bool (not .581))
(define-fun .583 () Bool (and .579 .582))
(define-fun .584 () Bool (<= .445 .327))
(define-fun .585 () Bool (not .584))
(define-fun .586 () Bool (and .583 .585))
(define-fun .587 () (_ FP 8 24) (- .327))
(define-fun .588 () Bool (= .328 .587))
(define-fun .589 () Bool (and .586 .588))
(define-fun .590 () Bool (and .330 .589))
(define-fun .591 () (_ FP 11 53) ((_ asFloat 11 53) .3 .310))
(define-fun .592 () Bool (<= .591 .463))
(define-fun .593 () Bool (not .592))
(define-fun .594 () Bool (and .590 .593))
(define-fun .595 () Bool (<= .445 .309))
(define-fun .596 () Bool (not .595))
(define-fun .597 () Bool (and .594 .596))
(define-fun .598 () (_ FP 8 24) (- .309))
(define-fun .599 () Bool (= .310 .598))
(define-fun .600 () Bool (and .597 .599))
(define-fun .601 () Bool (and .312 .600))
(define-fun .602 () (_ FP 11 53) ((_ asFloat 11 53) .3 .292))
(define-fun .603 () Bool (<= .602 .463))
(define-fun .604 () Bool (not .603))
(define-fun .605 () Bool (and .601 .604))
(define-fun .606 () Bool (<= .445 .291))
(define-fun .607 () Bool (not .606))
(define-fun .608 () Bool (and .605 .607))
(define-fun .609 () (_ FP 8 24) (- .291))
(define-fun .610 () Bool (= .292 .609))
(define-fun .611 () Bool (and .608 .610))
(define-fun .612 () Bool (and .294 .611))
(define-fun .613 () (_ FP 11 53) ((_ asFloat 11 53) .3 .274))
(define-fun .614 () Bool (<= .613 .463))
(define-fun .615 () Bool (not .614))
(define-fun .616 () Bool (and .612 .615))
(define-fun .617 () Bool (<= .445 .273))
(define-fun .618 () Bool (not .617))
(define-fun .619 () Bool (and .616 .618))
(define-fun .620 () (_ FP 8 24) (- .273))
(define-fun .621 () Bool (= .274 .620))
(define-fun .622 () Bool (and .619 .621))
(define-fun .623 () Bool (and .276 .622))
(define-fun .624 () (_ FP 11 53) ((_ asFloat 11 53) .3 .256))
(define-fun .625 () Bool (<= .624 .463))
(define-fun .626 () Bool (not .625))
(define-fun .627 () Bool (and .623 .626))
(define-fun .628 () Bool (<= .445 .255))
(define-fun .629 () Bool (not .628))
(define-fun .630 () Bool (and .627 .629))
(define-fun .631 () (_ FP 8 24) (- .255))
(define-fun .632 () Bool (= .256 .631))
(define-fun .633 () Bool (and .630 .632))
(define-fun .634 () Bool (and .258 .633))
(define-fun .635 () (_ FP 11 53) ((_ asFloat 11 53) .3 .238))
(define-fun .636 () Bool (<= .635 .463))
(define-fun .637 () Bool (not .636))
(define-fun .638 () Bool (and .634 .637))
(define-fun .639 () Bool (<= .445 .237))
(define-fun .640 () Bool (not .639))
(define-fun .641 () Bool (and .638 .640))
(define-fun .642 () (_ FP 8 24) (- .237))
(define-fun .643 () Bool (= .238 .642))
(define-fun .644 () Bool (and .641 .643))
(define-fun .645 () Bool (and .240 .644))
(define-fun .646 () (_ FP 11 53) ((_ asFloat 11 53) .3 .220))
(define-fun .647 () Bool (<= .646 .463))
(define-fun .648 () Bool (not .647))
(define-fun .649 () Bool (and .645 .648))
(define-fun .650 () Bool (<= .445 .219))
(define-fun .651 () Bool (not .650))
(define-fun .652 () Bool (and .649 .651))
(define-fun .653 () (_ FP 8 24) (- .219))
(define-fun .654 () Bool (= .220 .653))
(define-fun .655 () Bool (and .652 .654))
(define-fun .656 () Bool (and .222 .655))
(define-fun .657 () (_ FP 11 53) ((_ asFloat 11 53) .3 .202))
(define-fun .658 () Bool (<= .657 .463))
(define-fun .659 () Bool (not .658))
(define-fun .660 () Bool (and .656 .659))
(define-fun .661 () Bool (<= .445 .201))
(define-fun .662 () Bool (not .661))
(define-fun .663 () Bool (and .660 .662))
(define-fun .664 () (_ FP 8 24) (- .201))
(define-fun .665 () Bool (= .202 .664))
(define-fun .666 () Bool (and .663 .665))
(define-fun .667 () Bool (and .204 .666))
(define-fun .668 () (_ FP 11 53) ((_ asFloat 11 53) .3 .184))
(define-fun .669 () Bool (<= .668 .463))
(define-fun .670 () Bool (not .669))
(define-fun .671 () Bool (and .667 .670))
(define-fun .672 () Bool (<= .445 .183))
(define-fun .673 () Bool (not .672))
(define-fun .674 () Bool (and .671 .673))
(define-fun .675 () (_ FP 8 24) (- .183))
(define-fun .676 () Bool (= .184 .675))
(define-fun .677 () Bool (and .674 .676))
(define-fun .678 () Bool (and .186 .677))
(define-fun .679 () (_ FP 11 53) ((_ asFloat 11 53) .3 .166))
(define-fun .680 () Bool (<= .679 .463))
(define-fun .681 () Bool (not .680))
(define-fun .682 () Bool (and .678 .681))
(define-fun .683 () Bool (<= .445 .165))
(define-fun .684 () Bool (not .683))
(define-fun .685 () Bool (and .682 .684))
(define-fun .686 () (_ FP 8 24) (- .165))
(define-fun .687 () Bool (= .166 .686))
(define-fun .688 () Bool (and .685 .687))
(define-fun .689 () Bool (and .168 .688))
(define-fun .690 () (_ FP 11 53) ((_ asFloat 11 53) .3 .148))
(define-fun .691 () Bool (<= .690 .463))
(define-fun .692 () Bool (not .691))
(define-fun .693 () Bool (and .689 .692))
(define-fun .694 () Bool (<= .445 .147))
(define-fun .695 () Bool (not .694))
(define-fun .696 () Bool (and .693 .695))
(define-fun .697 () (_ FP 8 24) (- .147))
(define-fun .698 () Bool (= .148 .697))
(define-fun .699 () Bool (and .696 .698))
(define-fun .700 () Bool (and .150 .699))
(define-fun .701 () (_ FP 11 53) ((_ asFloat 11 53) .3 .130))
(define-fun .702 () Bool (<= .701 .463))
(define-fun .703 () Bool (not .702))
(define-fun .704 () Bool (and .700 .703))
(define-fun .705 () Bool (<= .445 .129))
(define-fun .706 () Bool (not .705))
(define-fun .707 () Bool (and .704 .706))
(define-fun .708 () (_ FP 8 24) (- .129))
(define-fun .709 () Bool (= .130 .708))
(define-fun .710 () Bool (and .707 .709))
(define-fun .711 () Bool (and .132 .710))
(define-fun .712 () (_ FP 11 53) ((_ asFloat 11 53) .3 .112))
(define-fun .713 () Bool (<= .712 .463))
(define-fun .714 () Bool (not .713))
(define-fun .715 () Bool (and .711 .714))
(define-fun .716 () Bool (<= .445 .111))
(define-fun .717 () Bool (not .716))
(define-fun .718 () Bool (and .715 .717))
(define-fun .719 () (_ FP 8 24) (- .111))
(define-fun .720 () Bool (= .112 .719))
(define-fun .721 () Bool (and .718 .720))
(define-fun .722 () Bool (and .114 .721))
(define-fun .723 () (_ FP 11 53) ((_ asFloat 11 53) .3 .94))
(define-fun .724 () Bool (<= .723 .463))
(define-fun .725 () Bool (not .724))
(define-fun .726 () Bool (and .722 .725))
(define-fun .727 () Bool (<= .445 .93))
(define-fun .728 () Bool (not .727))
(define-fun .729 () Bool (and .726 .728))
(define-fun .730 () (_ FP 8 24) (- .93))
(define-fun .731 () Bool (= .94 .730))
(define-fun .732 () Bool (and .729 .731))
(define-fun .733 () Bool (and .96 .732))
(define-fun .734 () (_ FP 11 53) ((_ asFloat 11 53) .3 .76))
(define-fun .735 () Bool (<= .734 .463))
(define-fun .736 () Bool (not .735))
(define-fun .737 () Bool (and .733 .736))
(define-fun .738 () Bool (<= .445 .75))
(define-fun .739 () Bool (not .738))
(define-fun .740 () Bool (and .737 .739))
(define-fun .741 () (_ FP 8 24) (- .75))
(define-fun .742 () Bool (= .76 .741))
(define-fun .743 () Bool (and .740 .742))
(define-fun .744 () Bool (and .78 .743))
(define-fun .745 () (_ FP 11 53) ((_ asFloat 11 53) .3 .58))
(define-fun .746 () Bool (<= .745 .463))
(define-fun .747 () Bool (not .746))
(define-fun .748 () Bool (and .744 .747))
(define-fun .749 () Bool (<= .445 .57))
(define-fun .750 () Bool (not .749))
(define-fun .751 () Bool (and .748 .750))
(define-fun .752 () (_ FP 8 24) (- .57))
(define-fun .753 () Bool (= .58 .752))
(define-fun .754 () Bool (and .751 .753))
(define-fun .755 () Bool (and .60 .754))
(define-fun .756 () (_ FP 11 53) ((_ asFloat 11 53) .3 .40))
(define-fun .757 () Bool (<= .756 .463))
(define-fun .758 () Bool (not .757))
(define-fun .759 () Bool (and .755 .758))
(define-fun .760 () Bool (<= .445 .39))
(define-fun .761 () Bool (not .760))
(define-fun .762 () Bool (and .759 .761))
(define-fun .763 () (_ FP 8 24) (- .39))
(define-fun .764 () Bool (= .40 .763))
(define-fun .765 () Bool (and .762 .764))
(define-fun .766 () Bool (and .42 .765))
(define-fun .767 () Bool (<= .445 .26))
(define-fun .768 () Bool (not .767))
(define-fun .769 () Bool (and .766 .768))
(define-fun .770 () (_ FP 8 24) (- .26))
(define-fun .771 () Bool (= .27 .770))
(define-fun .772 () Bool (and .769 .771))
(define-fun .773 () Bool (and .29 .772))
(assert .773)
(check-sat)
